
******************************************************************************
This program contains Ipopt, a library for large-scale nonlinear optimization.
 Ipopt is released as open source code under the Eclipse Public License (EPL).
         For more information visit http://projects.coin-or.org/Ipopt

This version of Ipopt was compiled from source code available at
    https://github.com/IDAES/Ipopt as part of the Institute for the Design of
    Advanced Energy Systems Process Systems Engineering Framework (IDAES PSE
    Framework) Copyright (c) 2018-2019. See https://github.com/IDAES/idaes-pse.

This version of Ipopt was compiled using HSL, a collection of Fortran codes
    for large-scale scientific computation.  All technical papers, sales and
    publicity material resulting from use of the HSL codes within IPOPT must
    contain the following acknowledgement:
        HSL, a collection of Fortran codes for large-scale scientific
        computation. See http://www.hsl.rl.ac.uk.
******************************************************************************

This is Ipopt version 3.13.2, running with linear solver ma27.

Number of nonzeros in equality constraint Jacobian...:      808
Number of nonzeros in inequality constraint Jacobian.:        0
Number of nonzeros in Lagrangian Hessian.............:      702

Total number of variables............................:      351
                     variables with only lower bounds:      108
                variables with lower and upper bounds:      189
                     variables with only upper bounds:        0
Total number of equality constraints.................:      350
Total number of inequality constraints...............:        0
        inequality constraints with only lower bounds:        0
   inequality constraints with lower and upper bounds:        0
        inequality constraints with only upper bounds:        0

iter    objective    inf_pr   inf_du lg(mu)  ||d||  lg(rg) alpha_du alpha_pr  ls
   0  0.0000000e+00 4.83e-01 2.22e-16  -1.0 0.00e+00    -  0.00e+00 0.00e+00   0
   1  1.0466886e+00 3.82e-01 6.42e+04  -1.0 2.87e+05    -  3.48e-01 2.21e-01h  1
   2  1.1172940e+00 3.78e-01 6.37e+04  -1.0 2.50e+05    -  7.19e-01 8.90e-03h  1
   3  1.7099232e+01 1.56e-01 3.55e+04  -1.0 3.16e+05    -  7.20e-01 6.57e-01h  1
   4  4.2667582e+01 1.24e-02 9.30e+03  -1.0 1.57e+05    -  8.59e-01 9.90e-01h  1
   5  4.5215564e+01 2.00e-04 9.30e+01  -1.0 1.31e+04    -  9.81e-01 9.90e-01h  1
   6  4.5264185e+01 7.39e-06 5.78e+00  -1.0 2.34e+02    -  9.90e-01 9.90e-01h  1
   7  4.5357039e+01 1.42e-05 1.80e+03  -1.0 8.73e+02    -  9.90e-01 9.90e-01H  1
   8  4.5306729e+01 1.96e-04 5.93e+07  -2.5 1.05e+03    -  9.97e-01 4.43e-01f  2
   9  4.5257909e+01 1.87e-04 7.10e+05  -2.5 4.52e+02    -  1.00e+00 9.97e-01h  1
iter    objective    inf_pr   inf_du lg(mu)  ||d||  lg(rg) alpha_du alpha_pr  ls
  10  4.5257539e+01 5.20e-07 1.92e+08  -2.5 3.37e+00    -  1.00e+00 9.97e-01h  1
In iteration 10, 27 Slacks too small, adjusting variable bounds
  11  4.5257538e+01 1.47e-09 6.77e+10  -2.5 9.03e-03    -  1.00e+00 9.97e-01h  1
  12  4.5257538e+01 5.42e-12 1.95e-03  -2.5 2.55e-05    -  1.00e+00 1.00e+00h  1
  13  4.5254699e+01 3.19e-10 2.73e+08  -9.0 2.63e+01    -  1.00e+00 9.96e-01F  1
  14  4.5254699e+01 3.03e-12 5.08e-08  -9.0 5.26e-06    -  1.00e+00 1.00e+00h  1

Number of Iterations....: 14

                                   (scaled)                 (unscaled)
Objective...............:   4.5254698911320567e+01    4.5254698911320567e+01
Dual infeasibility......:   5.0753442337736487e-08    5.0753442337736487e-08
Constraint violation....:   3.0291325003872771e-12    3.0291325003872771e-12
Complementarity.........:   9.0909559765968885e-10    9.0909559765968885e-10
Overall NLP error.......:   3.5870137048467163e-09    5.0753442337736487e-08


Number of objective function evaluations             = 21
Number of objective gradient evaluations             = 15
Number of equality constraint evaluations            = 21
Number of inequality constraint evaluations          = 0
Number of equality constraint Jacobian evaluations   = 15
Number of inequality constraint Jacobian evaluations = 0
Number of Lagrangian Hessian evaluations             = 14
Total CPU secs in IPOPT (w/o function evaluations)   =      0.029
Total CPU secs in NLP function evaluations           =      0.281

EXIT: Optimal Solution Found.
